(set-info :smt-lib-version 2.6)
(set-logic ANIA)
(set-info :source |
Generated by: Matthias Heizmann
Generated on: 2024-04-13
Generator: Ultimate Automizer
Application: Software Verification
Generated by the tool Ultimate Automizer [1,2] which implements
an automata theoretic approach [3] to software verification.

This SMT script belongs to a set of SMT scripts that was generated by
applying Ultimate Automizer to benchmarks [4] from the SV-COMP 2024 [5,6].
This script may not contain all SMT commands that Ultimate Automizer
issued. In order to meet the restrictions for SMT-COMP benchmarks 
we dropped the commands for getting values (resp. models), 
unsatisfiable cores, and interpolants.

2024-04-13, Matthias Heizmann (heizmann@informatik.uni-freiburg.de)

[1] https://ultimate.informatik.uni-freiburg.de/automizer/
[2] Matthias Heizmann, Max Barth, Daniel Dietsch, Leonard Fichtner,
     Jochen Hoenicke, Dominik Klumpp, Mehdi Naouar, Tanja Schindler,
     Frank Schüssele, Andreas Podelski: Ultimate Automizer and the
     CommuHash Normal Form (Competition Contribution). TACAS 2023
[3] Matthias Heizmann, Jochen Hoenicke, Andreas Podelski: Software Model
     Checking for People Who Love Automata. CAV 2013
[4] https://github.com/sosy-lab/sv-benchmarks
[5] Dirk Beyer: State of the Art in Software Verification and
     Witness Validation: SV-COMP 2024.  TACAS 2024
[6] https://sv-comp.sosy-lab.org/2024/
|)
(set-info :license "https://creativecommons.org/licenses/by/4.0/")
(set-info :category "industrial")
(set-info :status unknown)
(declare-fun |#valid_-1| () (Array Int Int))
(declare-fun |#memory_int_-1| () (Array Int (Array Int Int)))
(declare-fun |#length_-1| () (Array Int Int))
(declare-fun |#StackHeapBarrier_-1| () Int)
(declare-fun |ULTIMATE.start_main_~#a~0#1.base_1| () Int)
(declare-fun |ULTIMATE.start_main_~#a~0#1.offset_1| () Int)
(declare-fun |ULTIMATE.start_main_~i~0#1_1| () Int)
(declare-fun |#valid_1| () (Array Int Int))
(declare-fun |#length_1| () (Array Int Int))
(declare-fun |ULTIMATE.start_main_~N~0#1_1| () Int)
(declare-fun v_ArrVal_11_fresh_1 () Int)
(declare-fun v_ArrVal_12_fresh_1 () Int)
(declare-fun |ULTIMATE.start_main_~i~0#1_2| () Int)
(declare-fun |#memory_int_2| () (Array Int (Array Int Int)))
(declare-fun |ULTIMATE.start_main_~i~0#1_3| () Int)
(declare-fun |#memory_int_3| () (Array Int (Array Int Int)))
(declare-fun |ULTIMATE.start_main_~i~0#1_5| () Int)
(declare-fun |ULTIMATE.start___VERIFIER_assert_~cond#1_6| () Int)
(declare-fun |v_ULTIMATE.start_main_#t~mem5#1_8_fresh_1| () Int)
(declare-fun |v_ULTIMATE.start___VERIFIER_assert_#in~cond#1_7_fresh_1| () Int)
(assert (not false))
(assert (<= 48 (select (select |#memory_int_-1| 1) 0)))
(assert (>= 48 (select (select |#memory_int_-1| 1) 0)))
(assert (<= (select |#valid_-1| 2) 1))
(assert (>= (select |#valid_-1| 2) 1))
(assert (<= (select |#valid_-1| 0) 0))
(assert (>= (select |#valid_-1| 0) 0))
(assert (< 0 |#StackHeapBarrier_-1|))
(assert (<= 1 (select |#valid_-1| 3)))
(assert (>= 1 (select |#valid_-1| 3)))
(assert (<= (select |#length_-1| 3) 12))
(assert (>= (select |#length_-1| 3) 12))
(assert (<= (select |#length_-1| 2) 31))
(assert (>= (select |#length_-1| 2) 31))
(assert (<= (select |#valid_-1| 1) 1))
(assert (>= (select |#valid_-1| 1) 1))
(assert (<= 2 (select |#length_-1| 1)))
(assert (>= 2 (select |#length_-1| 1)))
(assert (<= (select (select |#memory_int_-1| 1) 1) 0))
(assert (>= (select (select |#memory_int_-1| 1) 1) 0))
(assert (= (store |#length_-1| |ULTIMATE.start_main_~#a~0#1.base_1| v_ArrVal_12_fresh_1) |#length_1|))
(assert (<= v_ArrVal_12_fresh_1 (* (mod (+ |ULTIMATE.start_main_~N~0#1_1| 1) 536870912) 8)))
(assert (>= v_ArrVal_12_fresh_1 (* (mod (+ |ULTIMATE.start_main_~N~0#1_1| 1) 536870912) 8)))
(assert (= (store |#valid_-1| |ULTIMATE.start_main_~#a~0#1.base_1| v_ArrVal_11_fresh_1) |#valid_1|))
(assert (<= |ULTIMATE.start_main_~#a~0#1.offset_1| 0))
(assert (>= |ULTIMATE.start_main_~#a~0#1.offset_1| 0))
(assert (<= 100000 |ULTIMATE.start_main_~N~0#1_1|))
(assert (>= 100000 |ULTIMATE.start_main_~N~0#1_1|))
(assert (< |#StackHeapBarrier_-1| |ULTIMATE.start_main_~#a~0#1.base_1|))
(assert (<= (select |#valid_-1| |ULTIMATE.start_main_~#a~0#1.base_1|) 0))
(assert (>= (select |#valid_-1| |ULTIMATE.start_main_~#a~0#1.base_1|) 0))
(assert (<= v_ArrVal_11_fresh_1 1))
(assert (>= v_ArrVal_11_fresh_1 1))
(assert (<= |ULTIMATE.start_main_~i~0#1_1| 0))
(assert (>= |ULTIMATE.start_main_~i~0#1_1| 0))
(assert (not (= |ULTIMATE.start_main_~#a~0#1.base_1| 0)))
(assert (forall ((v_idxDim2_2 Int) (v_idxDim1_2 Int)) (or (= (select (select |#memory_int_-1| v_idxDim1_2) v_idxDim2_2) (select (select |#memory_int_2| v_idxDim1_2) v_idxDim2_2)) (= v_idxDim1_2 |ULTIMATE.start_main_~#a~0#1.base_1|))))
(assert (forall ((v_z_37 Int)) (or (< v_z_37 0) (< 7 (+ v_z_37 (mod |ULTIMATE.start_main_~#a~0#1.offset_1| 8))) (forall ((v_y_35 Int) (v_y_37 Int) (v_idxDim1_2 Int)) (let ((cse0 (+ |ULTIMATE.start_main_~#a~0#1.offset_1| 4)) (cse1 (* v_y_37 8))) (or (< 7 (+ v_z_37 (mod cse0 8) cse1)) (let ((cse2 (+ (* (- 1) v_z_37) (* v_y_37 (- 8)) (* v_y_35 8)))) (= (select (select |#memory_int_2| v_idxDim1_2) cse2) (select (select |#memory_int_-1| v_idxDim1_2) cse2))) (< v_y_35 (+ |ULTIMATE.start_main_~i~0#1_2| (div cse0 8))) (< (+ v_z_37 cse1) 0)))))))
(assert (let ((cse0 (mod (+ |ULTIMATE.start_main_~#a~0#1.offset_1| 4) 8))) (or (< 0 cse0) (forall ((v_y_63 Int)) (let ((cse1 (div (+ |ULTIMATE.start_main_~#a~0#1.offset_1| 4 (* 7 cse0)) 8))) (or (< (+ |ULTIMATE.start_main_~i~0#1_2| cse1) (+ v_y_63 1)) (< v_y_63 (+ |ULTIMATE.start_main_~i~0#1_1| cse1)) (= (select (select |#memory_int_2| |ULTIMATE.start_main_~#a~0#1.base_1|) (+ (* v_y_63 8) (* (- 7) cse0))) 0)))))))
(assert (forall ((v_y_57 Int) (v_z_57 Int) (v_idxDim1_2 Int)) (let ((cse0 (+ v_z_57 (mod (+ |ULTIMATE.start_main_~#a~0#1.offset_1| 4) 8)))) (or (< (+ |ULTIMATE.start_main_~i~0#1_1| (div (+ |ULTIMATE.start_main_~#a~0#1.offset_1| (* v_z_57 (- 7))) 8)) (+ v_y_57 1)) (= cse0 0) (< 7 v_z_57) (= cse0 8) (let ((cse1 (+ (* v_y_57 8) (* 7 v_z_57)))) (= (select (select |#memory_int_-1| v_idxDim1_2) cse1) (select (select |#memory_int_2| v_idxDim1_2) cse1))) (< v_z_57 0)))))
(assert (<= |ULTIMATE.start_main_~i~0#1_2| (+ |ULTIMATE.start_main_~N~0#1_1| 1)))
(assert (forall ((v_z_37 Int)) (or (forall ((v_y_37 Int)) (let ((cse0 (* v_y_37 8))) (or (< 7 (+ v_z_37 (mod (+ |ULTIMATE.start_main_~#a~0#1.offset_1| 4) 8) cse0)) (forall ((v_y_35 Int) (v_idxDim1_2 Int)) (or (< v_y_35 (+ |ULTIMATE.start_main_~i~0#1_2| v_y_37 (div |ULTIMATE.start_main_~#a~0#1.offset_1| 8) 1)) (let ((cse1 (+ (* (- 1) v_z_37) (* v_y_37 (- 8)) (* v_y_35 8)))) (= (select (select |#memory_int_2| v_idxDim1_2) cse1) (select (select |#memory_int_-1| v_idxDim1_2) cse1))))) (< (+ v_z_37 cse0) 0)))) (< v_z_37 0) (< 7 v_z_37))))
(assert (forall ((v_y_42 Int)) (let ((cse0 (+ |ULTIMATE.start_main_~i~0#1_1| (div (+ |ULTIMATE.start_main_~#a~0#1.offset_1| 4) 8)))) (or (= cse0 v_y_42) (< cse0 v_y_42) (forall ((v_z_49 Int)) (or (< 7 v_z_49) (< v_z_49 0) (forall ((v_y_49 Int) (v_idxDim1_2 Int)) (let ((cse2 (+ v_z_49 (* v_y_49 8)))) (or (let ((cse1 (+ (* v_y_49 (- 8)) (* v_y_42 8) (* (- 1) v_z_49)))) (= (select (select |#memory_int_-1| v_idxDim1_2) cse1) (select (select |#memory_int_2| v_idxDim1_2) cse1))) (< cse2 0) (= (+ |ULTIMATE.start_main_~i~0#1_1| v_y_49 (div |ULTIMATE.start_main_~#a~0#1.offset_1| 8)) v_y_42) (< 7 cse2))))))))))
(assert (forall ((v_y_35 Int) (v_z_41 Int) (v_y_41 Int) (v_idxDim1_2 Int)) (let ((cse0 (+ (* v_y_41 8) v_z_41)) (cse1 (+ v_z_41 (mod |ULTIMATE.start_main_~#a~0#1.offset_1| 8)))) (or (< 7 v_z_41) (< v_z_41 0) (< cse0 0) (= cse1 8) (let ((cse2 (+ (* v_y_35 8) (* (- 1) v_z_41) (* v_y_41 (- 8))))) (= (select (select |#memory_int_-1| v_idxDim1_2) cse2) (select (select |#memory_int_2| v_idxDim1_2) cse2))) (< v_y_35 (+ |ULTIMATE.start_main_~i~0#1_2| (div (+ |ULTIMATE.start_main_~#a~0#1.offset_1| 4) 8) 1)) (< 7 cse0) (= cse1 0)))))
(assert (<= (+ |ULTIMATE.start_main_~i~0#1_1| 1) |ULTIMATE.start_main_~i~0#1_2|))
(assert (forall ((v_z_43 Int) (v_y_42 Int)) (or (forall ((v_y_43 Int) (v_idxDim1_2 Int)) (let ((cse1 (* v_y_43 8))) (or (let ((cse0 (+ (* (- 1) v_z_43) (* v_y_42 8) (* v_y_43 (- 8))))) (= (select (select |#memory_int_-1| v_idxDim1_2) cse0) (select (select |#memory_int_2| v_idxDim1_2) cse0))) (< (+ v_z_43 cse1) 0) (< (+ |ULTIMATE.start_main_~i~0#1_1| v_y_43 (div |ULTIMATE.start_main_~#a~0#1.offset_1| 8)) (+ v_y_42 1)) (< 7 (+ v_z_43 (mod (+ |ULTIMATE.start_main_~#a~0#1.offset_1| 4) 8) cse1))))) (< 7 v_z_43) (< v_z_43 0))))
(assert (let ((cse0 (mod (+ |ULTIMATE.start_main_~#a~0#1.offset_1| 4) 8))) (or (< cse0 1) (forall ((v_y_63 Int)) (let ((cse1 (div (+ |ULTIMATE.start_main_~#a~0#1.offset_1| (- 52) (* 7 cse0)) 8))) (or (< (+ |ULTIMATE.start_main_~i~0#1_2| cse1) (+ v_y_63 1)) (= 0 (select (select |#memory_int_2| |ULTIMATE.start_main_~#a~0#1.base_1|) (+ 56 (* v_y_63 8) (* (- 7) cse0)))) (< v_y_63 (+ |ULTIMATE.start_main_~i~0#1_1| cse1))))))))
(assert (forall ((v_z_35 Int)) (let ((cse0 (+ |ULTIMATE.start_main_~#a~0#1.offset_1| 4))) (or (< 7 (+ v_z_35 (mod cse0 8))) (forall ((v_y_35 Int)) (or (forall ((v_idxDim1_2 Int)) (or (= v_idxDim1_2 |ULTIMATE.start_main_~#a~0#1.base_1|) (let ((cse1 (+ (* (- 1) v_z_35) (* v_y_35 8)))) (= (select (select |#memory_int_2| v_idxDim1_2) cse1) (select (select |#memory_int_-1| v_idxDim1_2) cse1))))) (< v_y_35 (+ |ULTIMATE.start_main_~i~0#1_2| (div cse0 8))))) (< v_z_35 0)))))
(assert (forall ((v_y_48 Int) (v_z_48 Int) (v_y_42 Int) (v_idxDim1_2 Int)) (let ((cse0 (* v_y_48 8)) (cse1 (+ |ULTIMATE.start_main_~#a~0#1.offset_1| 4))) (or (< 7 (+ v_z_48 cse0)) (< v_z_48 0) (< (+ |ULTIMATE.start_main_~i~0#1_1| (div cse1 8)) v_y_42) (= (+ v_z_48 (mod |ULTIMATE.start_main_~#a~0#1.offset_1| 8)) 8) (let ((cse2 (+ (* v_y_48 (- 8)) (* v_y_42 8) (* (- 1) v_z_48)))) (= (select (select |#memory_int_-1| v_idxDim1_2) cse2) (select (select |#memory_int_2| v_idxDim1_2) cse2))) (< (+ v_z_48 cse0 (mod cse1 8)) 8) (< 7 v_z_48)))))
(assert (forall ((v_y_35 Int) (v_z_38 Int) (v_y_38 Int) (v_idxDim1_2 Int)) (let ((cse0 (+ v_z_38 (mod |ULTIMATE.start_main_~#a~0#1.offset_1| 8))) (cse2 (* v_y_38 8)) (cse3 (+ |ULTIMATE.start_main_~#a~0#1.offset_1| 4))) (or (< v_z_38 0) (= 8 cse0) (< 7 v_z_38) (let ((cse1 (+ (* v_y_35 8) (* v_y_38 (- 8)) (* (- 1) v_z_38)))) (= (select (select |#memory_int_2| v_idxDim1_2) cse1) (select (select |#memory_int_-1| v_idxDim1_2) cse1))) (= 0 cse0) (< (+ cse2 v_z_38) 0) (< 7 (+ cse2 v_z_38 (mod cse3 8))) (< v_y_35 (+ |ULTIMATE.start_main_~i~0#1_2| (div cse3 8)))))))
(assert (forall ((v_y_51 Int) (v_z_51 Int) (v_y_42 Int) (v_idxDim1_2 Int)) (let ((cse2 (+ |ULTIMATE.start_main_~i~0#1_1| (div (+ |ULTIMATE.start_main_~#a~0#1.offset_1| 4) 8))) (cse1 (+ (* v_y_51 8) v_z_51)) (cse0 (+ v_z_51 (mod |ULTIMATE.start_main_~#a~0#1.offset_1| 8)))) (or (= 8 cse0) (< 7 cse1) (= cse2 v_y_42) (< v_z_51 0) (< cse2 v_y_42) (< cse1 0) (= cse0 0) (let ((cse3 (+ (* v_y_51 (- 8)) (* v_y_42 8) (* (- 1) v_z_51)))) (= (select (select |#memory_int_2| v_idxDim1_2) cse3) (select (select |#memory_int_-1| v_idxDim1_2) cse3))) (< 7 v_z_51)))))
(assert (forall ((v_z_46 Int) (v_y_42 Int)) (or (forall ((v_y_46 Int) (v_idxDim1_2 Int)) (let ((cse1 (* v_y_46 8))) (or (let ((cse0 (+ (* v_y_42 8) (* (- 1) v_z_46) (* v_y_46 (- 8))))) (= (select (select |#memory_int_-1| v_idxDim1_2) cse0) (select (select |#memory_int_2| v_idxDim1_2) cse0))) (< (+ |ULTIMATE.start_main_~i~0#1_1| v_y_46 (div |ULTIMATE.start_main_~#a~0#1.offset_1| 8)) v_y_42) (< 7 (+ cse1 v_z_46)) (< (+ cse1 v_z_46 (mod (+ |ULTIMATE.start_main_~#a~0#1.offset_1| 4) 8)) 8)))) (< (+ v_z_46 (mod |ULTIMATE.start_main_~#a~0#1.offset_1| 8)) 8) (< 7 v_z_46))))
(assert (forall ((v_z_40 Int)) (or (< 7 v_z_40) (< v_z_40 0) (forall ((v_y_40 Int)) (let ((cse0 (+ v_z_40 (* v_y_40 8)))) (or (< cse0 0) (< 7 cse0) (forall ((v_y_35 Int) (v_idxDim1_2 Int)) (or (let ((cse1 (+ (* (- 1) v_z_40) (* v_y_35 8) (* v_y_40 (- 8))))) (= (select (select |#memory_int_2| v_idxDim1_2) cse1) (select (select |#memory_int_-1| v_idxDim1_2) cse1))) (< v_y_35 (+ |ULTIMATE.start_main_~i~0#1_2| (div (+ |ULTIMATE.start_main_~#a~0#1.offset_1| 4) 8) 1))))))))))
(assert (forall ((v_y_58 Int) (v_z_60 Int) (v_y_60 Int) (v_idxDim1_2 Int)) (let ((cse4 (* v_y_60 8))) (let ((cse0 (+ cse4 v_z_60 (mod |ULTIMATE.start_main_~#a~0#1.offset_1| 8))) (cse1 (+ v_z_60 (mod (+ |ULTIMATE.start_main_~#a~0#1.offset_1| 4) 8))) (cse2 (+ cse4 v_z_60))) (or (< 7 v_z_60) (= cse0 0) (= cse1 8) (< 7 cse2) (= cse0 8) (< v_z_60 0) (= cse1 0) (< cse2 0) (let ((cse3 (+ (* v_y_58 8) (* 7 v_z_60) (* 56 v_y_60)))) (= (select (select |#memory_int_-1| v_idxDim1_2) cse3) (select (select |#memory_int_2| v_idxDim1_2) cse3))))))))
(assert (forall ((v_z_42 Int)) (let ((cse1 (+ |ULTIMATE.start_main_~#a~0#1.offset_1| 4))) (or (forall ((v_y_42 Int)) (or (forall ((v_idxDim1_2 Int)) (or (let ((cse0 (+ (* (- 1) v_z_42) (* v_y_42 8)))) (= (select (select |#memory_int_-1| v_idxDim1_2) cse0) (select (select |#memory_int_2| v_idxDim1_2) cse0))) (= v_idxDim1_2 |ULTIMATE.start_main_~#a~0#1.base_1|))) (< (+ |ULTIMATE.start_main_~i~0#1_1| (div cse1 8)) (+ v_y_42 1)))) (< 7 (+ v_z_42 (mod cse1 8))) (< v_z_42 0)))))
(assert (forall ((v_y_42 Int)) (let ((cse2 (+ |ULTIMATE.start_main_~#a~0#1.offset_1| 4))) (or (forall ((v_z_43 Int)) (or (< (+ v_z_43 (mod |ULTIMATE.start_main_~#a~0#1.offset_1| 8)) 8) (< 7 v_z_43) (forall ((v_y_43 Int) (v_idxDim1_2 Int)) (let ((cse1 (* v_y_43 8))) (or (let ((cse0 (+ (* (- 1) v_z_43) (* v_y_42 8) (* v_y_43 (- 8))))) (= (select (select |#memory_int_-1| v_idxDim1_2) cse0) (select (select |#memory_int_2| v_idxDim1_2) cse0))) (< (+ v_z_43 cse1) 0) (< 7 (+ v_z_43 (mod cse2 8) cse1))))))) (< (+ |ULTIMATE.start_main_~i~0#1_1| (div cse2 8)) (+ v_y_42 1))))))
(assert (let ((cse1 (mod |ULTIMATE.start_main_~#a~0#1.offset_1| 8))) (or (forall ((v_y_66 Int)) (let ((cse0 (div (+ |ULTIMATE.start_main_~#a~0#1.offset_1| (* 7 cse1)) 8))) (or (< v_y_66 (+ |ULTIMATE.start_main_~i~0#1_1| cse0)) (= (select (select |#memory_int_2| |ULTIMATE.start_main_~#a~0#1.base_1|) (+ (* (- 7) cse1) (* v_y_66 8))) 0) (< (+ |ULTIMATE.start_main_~i~0#1_2| cse0) (+ v_y_66 1))))) (< 0 cse1))))
(assert (forall ((v_z_61 Int) (v_y_61 Int) (v_idxDim1_2 Int)) (let ((cse1 (+ v_z_61 (mod (+ |ULTIMATE.start_main_~#a~0#1.offset_1| 4) 8)))) (or (let ((cse0 (+ (* 7 v_z_61) (* v_y_61 8)))) (= (select (select |#memory_int_2| v_idxDim1_2) cse0) (select (select |#memory_int_-1| v_idxDim1_2) cse0))) (< v_z_61 0) (= cse1 0) (= cse1 8) (= v_idxDim1_2 |ULTIMATE.start_main_~#a~0#1.base_1|) (< 7 v_z_61)))))
(assert (forall ((v_z_42 Int)) (let ((cse0 (+ |ULTIMATE.start_main_~#a~0#1.offset_1| 4))) (or (< (+ v_z_42 (mod cse0 8)) 8) (< 7 v_z_42) (forall ((v_y_42 Int)) (or (< (+ |ULTIMATE.start_main_~i~0#1_1| (div cse0 8)) v_y_42) (forall ((v_idxDim1_2 Int)) (or (let ((cse1 (+ (* (- 1) v_z_42) (* v_y_42 8)))) (= (select (select |#memory_int_-1| v_idxDim1_2) cse1) (select (select |#memory_int_2| v_idxDim1_2) cse1))) (= v_idxDim1_2 |ULTIMATE.start_main_~#a~0#1.base_1|)))))))))
(assert (forall ((v_z_35 Int)) (or (< 7 v_z_35) (< v_z_35 0) (forall ((v_y_35 Int)) (or (forall ((v_idxDim1_2 Int)) (or (= v_idxDim1_2 |ULTIMATE.start_main_~#a~0#1.base_1|) (let ((cse0 (+ (* (- 1) v_z_35) (* v_y_35 8)))) (= (select (select |#memory_int_2| v_idxDim1_2) cse0) (select (select |#memory_int_-1| v_idxDim1_2) cse0))))) (< v_y_35 (+ |ULTIMATE.start_main_~i~0#1_2| (div (+ |ULTIMATE.start_main_~#a~0#1.offset_1| 4) 8) 1)))))))
(assert (forall ((v_z_46 Int) (v_y_42 Int)) (or (forall ((v_y_46 Int) (v_idxDim1_2 Int)) (let ((cse2 (* v_y_46 8)) (cse1 (+ |ULTIMATE.start_main_~i~0#1_1| v_y_46 (div |ULTIMATE.start_main_~#a~0#1.offset_1| 8)))) (or (let ((cse0 (+ (* v_y_42 8) (* (- 1) v_z_46) (* v_y_46 (- 8))))) (= (select (select |#memory_int_-1| v_idxDim1_2) cse0) (select (select |#memory_int_2| v_idxDim1_2) cse0))) (< cse1 v_y_42) (< 7 (+ cse2 v_z_46)) (< (+ cse2 v_z_46 (mod (+ |ULTIMATE.start_main_~#a~0#1.offset_1| 4) 8)) 8) (= cse1 v_y_42)))) (< v_z_46 0) (< 7 v_z_46))))
(assert (forall ((v_z_40 Int)) (or (< v_z_40 0) (forall ((v_y_35 Int) (v_y_40 Int) (v_idxDim1_2 Int)) (let ((cse0 (+ v_z_40 (* v_y_40 8)))) (or (< cse0 0) (let ((cse1 (+ (* (- 1) v_z_40) (* v_y_35 8) (* v_y_40 (- 8))))) (= (select (select |#memory_int_2| v_idxDim1_2) cse1) (select (select |#memory_int_-1| v_idxDim1_2) cse1))) (< 7 cse0) (< v_y_35 (+ |ULTIMATE.start_main_~i~0#1_2| (div (+ |ULTIMATE.start_main_~#a~0#1.offset_1| 4) 8) 1))))) (< 7 (+ v_z_40 (mod |ULTIMATE.start_main_~#a~0#1.offset_1| 8))))))
(assert (forall ((v_z_49 Int) (v_y_42 Int)) (or (forall ((v_y_49 Int) (v_idxDim1_2 Int)) (let ((cse1 (+ v_z_49 (* v_y_49 8)))) (or (< (+ |ULTIMATE.start_main_~i~0#1_1| v_y_49 (div |ULTIMATE.start_main_~#a~0#1.offset_1| 8)) (+ v_y_42 1)) (let ((cse0 (+ (* v_y_49 (- 8)) (* v_y_42 8) (* (- 1) v_z_49)))) (= (select (select |#memory_int_-1| v_idxDim1_2) cse0) (select (select |#memory_int_2| v_idxDim1_2) cse0))) (< cse1 0) (< 7 cse1)))) (< v_z_49 0) (< 7 (+ v_z_49 (mod |ULTIMATE.start_main_~#a~0#1.offset_1| 8))))))
(assert (forall ((v_y_45 Int) (v_y_42 Int) (v_z_45 Int) (v_idxDim1_2 Int)) (let ((cse0 (+ v_z_45 (mod |ULTIMATE.start_main_~#a~0#1.offset_1| 8))) (cse3 (+ |ULTIMATE.start_main_~#a~0#1.offset_1| 4)) (cse2 (* v_y_45 8))) (or (= cse0 0) (< 7 v_z_45) (< v_z_45 0) (let ((cse1 (+ (* v_y_45 (- 8)) (* v_y_42 8) (* (- 1) v_z_45)))) (= (select (select |#memory_int_-1| v_idxDim1_2) cse1) (select (select |#memory_int_2| v_idxDim1_2) cse1))) (= cse0 8) (< (+ v_z_45 cse2) 0) (< (+ |ULTIMATE.start_main_~i~0#1_1| (div cse3 8)) (+ v_y_42 1)) (< 7 (+ v_z_45 (mod cse3 8) cse2))))))
(assert (forall ((v_y_42 Int)) (let ((cse2 (+ |ULTIMATE.start_main_~i~0#1_1| (div (+ |ULTIMATE.start_main_~#a~0#1.offset_1| 4) 8)))) (or (forall ((v_z_49 Int)) (or (< (+ v_z_49 (mod |ULTIMATE.start_main_~#a~0#1.offset_1| 8)) 8) (< 7 v_z_49) (forall ((v_y_49 Int) (v_idxDim1_2 Int)) (let ((cse1 (+ v_z_49 (* v_y_49 8)))) (or (let ((cse0 (+ (* v_y_49 (- 8)) (* v_y_42 8) (* (- 1) v_z_49)))) (= (select (select |#memory_int_-1| v_idxDim1_2) cse0) (select (select |#memory_int_2| v_idxDim1_2) cse0))) (< cse1 0) (< 7 cse1)))))) (= cse2 v_y_42) (< cse2 v_y_42)))))
(assert (let ((cse0 (mod |ULTIMATE.start_main_~#a~0#1.offset_1| 8))) (or (< cse0 1) (forall ((v_y_66 Int)) (let ((cse1 (div (+ |ULTIMATE.start_main_~#a~0#1.offset_1| (* 7 cse0)) 8))) (or (< (+ |ULTIMATE.start_main_~i~0#1_2| cse1) (+ v_y_66 8)) (= (select (select |#memory_int_2| |ULTIMATE.start_main_~#a~0#1.base_1|) (+ 56 (* (- 7) cse0) (* v_y_66 8))) 0) (< (+ 7 v_y_66) (+ |ULTIMATE.start_main_~i~0#1_1| cse1))))))))
(assert (forall ((v_z_55 Int) (v_y_55 Int) (v_idxDim1_2 Int)) (let ((cse1 (+ v_z_55 (mod (+ |ULTIMATE.start_main_~#a~0#1.offset_1| 4) 8)))) (or (let ((cse0 (+ (* 7 v_z_55) (* v_y_55 8)))) (= (select (select |#memory_int_2| v_idxDim1_2) cse0) (select (select |#memory_int_-1| v_idxDim1_2) cse0))) (= cse1 8) (< v_z_55 0) (= cse1 0) (< v_y_55 (+ |ULTIMATE.start_main_~i~0#1_2| (div (+ |ULTIMATE.start_main_~#a~0#1.offset_1| (* v_z_55 (- 7))) 8))) (< 7 v_z_55)))))
(assert (forall ((v_z_42 Int)) (or (forall ((v_y_42 Int)) (let ((cse0 (+ |ULTIMATE.start_main_~i~0#1_1| (div (+ |ULTIMATE.start_main_~#a~0#1.offset_1| 4) 8)))) (or (= cse0 v_y_42) (< cse0 v_y_42) (forall ((v_idxDim1_2 Int)) (or (let ((cse1 (+ (* (- 1) v_z_42) (* v_y_42 8)))) (= (select (select |#memory_int_-1| v_idxDim1_2) cse1) (select (select |#memory_int_2| v_idxDim1_2) cse1))) (= v_idxDim1_2 |ULTIMATE.start_main_~#a~0#1.base_1|)))))) (< 7 v_z_42) (< v_z_42 0))))
(assert (forall ((v_z_46 Int) (v_y_42 Int)) (or (forall ((v_y_46 Int) (v_idxDim1_2 Int)) (let ((cse1 (* v_y_46 8))) (or (let ((cse0 (+ (* v_y_42 8) (* (- 1) v_z_46) (* v_y_46 (- 8))))) (= (select (select |#memory_int_-1| v_idxDim1_2) cse0) (select (select |#memory_int_2| v_idxDim1_2) cse0))) (< (+ |ULTIMATE.start_main_~i~0#1_1| v_y_46 (div |ULTIMATE.start_main_~#a~0#1.offset_1| 8)) (+ v_y_42 1)) (< 7 (+ cse1 v_z_46)) (< (+ cse1 v_z_46 (mod (+ |ULTIMATE.start_main_~#a~0#1.offset_1| 4) 8)) 8)))) (< 7 (+ v_z_46 (mod |ULTIMATE.start_main_~#a~0#1.offset_1| 8))) (< v_z_46 0))))
(assert (forall ((v_z_75 Int)) (or (< v_z_75 0) (forall ((v_y_75 Int)) (or (forall ((v_idxDim1_3 Int)) (or (= |ULTIMATE.start_main_~#a~0#1.base_1| v_idxDim1_3) (let ((cse0 (+ v_z_75 (* v_y_75 8)))) (= (select (select |#memory_int_2| v_idxDim1_3) cse0) (select (select |#memory_int_3| v_idxDim1_3) cse0))))) (< |ULTIMATE.start_main_~i~0#1_2| (+ v_y_75 2 (div (+ (* (- 1) |ULTIMATE.start_main_~#a~0#1.offset_1|) (- 4)) 8))))) (< 7 v_z_75))))
(assert (forall ((v_z_76 Int) (v_y_75 Int)) (or (< 7 v_z_76) (forall ((v_y_76 Int) (v_idxDim1_3 Int)) (let ((cse1 (* v_y_76 8))) (or (< (+ |ULTIMATE.start_main_~i~0#1_2| (div |ULTIMATE.start_main_~#a~0#1.offset_1| 8)) (+ v_y_76 v_y_75 1)) (let ((cse0 (+ cse1 (* (- 1) v_z_76) (* v_y_75 8)))) (= (select (select |#memory_int_3| v_idxDim1_3) cse0) (select (select |#memory_int_2| v_idxDim1_3) cse0))) (< cse1 v_z_76) (< (+ 7 v_z_76) (+ cse1 (mod (+ 4 (* 7 |ULTIMATE.start_main_~#a~0#1.offset_1|)) 8)))))) (< v_z_76 0))))
(assert (let ((cse0 (mod |ULTIMATE.start_main_~#a~0#1.offset_1| 8))) (or (< cse0 1) (forall ((v_y_93 Int)) (let ((cse1 (div (+ (* 7 cse0) |ULTIMATE.start_main_~#a~0#1.offset_1|) 8))) (or (< (+ 7 v_y_93) (+ |ULTIMATE.start_main_~i~0#1_2| cse1)) (= (select (select |#memory_int_3| |ULTIMATE.start_main_~#a~0#1.base_1|) (+ 56 (* (- 7) cse0) (* v_y_93 8))) 0) (< (+ |ULTIMATE.start_main_~i~0#1_3| cse1) (+ v_y_93 8))))))))
(assert (forall ((v_y_78 Int) (v_y_75 Int) (v_z_78 Int) (v_idxDim1_3 Int)) (let ((cse0 (* 7 v_z_78)) (cse1 (* v_y_78 8)) (cse3 (+ v_z_78 (mod |ULTIMATE.start_main_~#a~0#1.offset_1| 8)))) (or (< (+ cse0 cse1) 0) (< |ULTIMATE.start_main_~i~0#1_2| (+ v_y_75 (div (+ (* (- 1) |ULTIMATE.start_main_~#a~0#1.offset_1|) (- 4)) 8) 1)) (let ((cse2 (+ (* v_y_75 8) cse0 cse1))) (= (select (select |#memory_int_3| v_idxDim1_3) cse2) (select (select |#memory_int_2| v_idxDim1_3) cse2))) (< 7 (+ (mod (+ 4 (* 7 |ULTIMATE.start_main_~#a~0#1.offset_1|)) 8) cse0 cse1)) (< v_z_78 0) (= cse3 0) (= cse3 8) (< 7 v_z_78)))))
(assert (forall ((v_z_73 Int)) (or (< v_z_73 0) (< 7 (+ v_z_73 (mod |ULTIMATE.start_main_~#a~0#1.offset_1| 8))) (forall ((v_y_68 Int) (v_y_73 Int) (v_idxDim1_3 Int)) (let ((cse1 (* v_y_73 8))) (or (< (+ v_y_68 (div (+ (* (- 1) |ULTIMATE.start_main_~#a~0#1.offset_1|) (- 4)) 8)) |ULTIMATE.start_main_~i~0#1_3|) (let ((cse0 (+ cse1 (* (- 1) v_z_73) (* v_y_68 8)))) (= (select (select |#memory_int_2| v_idxDim1_3) cse0) (select (select |#memory_int_3| v_idxDim1_3) cse0))) (< cse1 v_z_73) (< (+ 7 v_z_73) cse1)))))))
(assert (forall ((v_z_83 Int)) (or (forall ((v_y_82 Int) (v_y_83 Int) (v_idxDim1_3 Int)) (let ((cse1 (* v_y_83 8))) (let ((cse0 (+ cse1 (mod (+ 4 (* 7 |ULTIMATE.start_main_~#a~0#1.offset_1|)) 8)))) (or (= v_z_83 cse0) (< cse1 v_z_83) (= (+ v_z_83 8) cse0) (< (+ 7 v_z_83) cse1) (let ((cse2 (+ cse1 (* v_y_82 8) (* (- 1) v_z_83)))) (= (select (select |#memory_int_3| v_idxDim1_3) cse2) (select (select |#memory_int_2| v_idxDim1_3) cse2))) (< (+ |ULTIMATE.start_main_~i~0#1_2| (div |ULTIMATE.start_main_~#a~0#1.offset_1| 8)) (+ v_y_83 v_y_82 1)))))) (< 7 (+ v_z_83 (mod |ULTIMATE.start_main_~#a~0#1.offset_1| 8))) (< v_z_83 0))))
(assert (forall ((v_z_82 Int)) (let ((cse0 (+ v_z_82 (mod (+ 4 (* 7 |ULTIMATE.start_main_~#a~0#1.offset_1|)) 8)))) (or (< 7 v_z_82) (= cse0 8) (forall ((v_y_82 Int) (v_idxDim1_3 Int)) (or (let ((cse1 (+ v_z_82 (* v_y_82 8)))) (= (select (select |#memory_int_3| v_idxDim1_3) cse1) (select (select |#memory_int_2| v_idxDim1_3) cse1))) (= |ULTIMATE.start_main_~#a~0#1.base_1| v_idxDim1_3))) (= cse0 0) (< v_z_82 0)))))
(assert (forall ((v_z_81 Int) (v_y_81 Int) (v_y_75 Int) (v_idxDim1_3 Int)) (let ((cse3 (* 7 v_z_81)) (cse4 (* v_y_81 8))) (let ((cse0 (+ v_z_81 (mod |ULTIMATE.start_main_~#a~0#1.offset_1| 8))) (cse1 (+ cse3 cse4))) (or (= cse0 0) (< cse1 0) (< v_z_81 0) (= cse0 8) (let ((cse2 (+ cse3 cse4 (* v_y_75 8)))) (= (select (select |#memory_int_3| v_idxDim1_3) cse2) (select (select |#memory_int_2| v_idxDim1_3) cse2))) (< 7 cse1) (< |ULTIMATE.start_main_~i~0#1_2| (+ v_y_75 2 (div (+ (* (- 1) |ULTIMATE.start_main_~#a~0#1.offset_1|) (- 4)) 8))) (< 7 v_z_81))))))
(assert (let ((cse0 (mod |ULTIMATE.start_main_~#a~0#1.offset_1| 8))) (or (< 0 cse0) (forall ((v_y_93 Int)) (let ((cse1 (div (+ (* 7 cse0) |ULTIMATE.start_main_~#a~0#1.offset_1|) 8))) (or (= (select (select |#memory_int_3| |ULTIMATE.start_main_~#a~0#1.base_1|) (+ (* (- 7) cse0) (* v_y_93 8))) 0) (< (+ |ULTIMATE.start_main_~i~0#1_3| cse1) (+ v_y_93 1)) (< v_y_93 (+ |ULTIMATE.start_main_~i~0#1_2| cse1))))))))
(assert (<= (+ |ULTIMATE.start_main_~i~0#1_2| 1) |ULTIMATE.start_main_~i~0#1_3|))
(assert (forall ((v_z_79 Int) (v_y_75 Int)) (or (< v_z_79 0) (forall ((v_y_79 Int) (v_idxDim1_3 Int)) (let ((cse0 (* v_y_79 8))) (or (< (+ |ULTIMATE.start_main_~i~0#1_2| (div |ULTIMATE.start_main_~#a~0#1.offset_1| 8)) (+ v_y_75 v_y_79 1)) (< cse0 v_z_79) (< (+ 7 v_z_79) cse0) (let ((cse1 (+ (* (- 1) v_z_79) cse0 (* v_y_75 8)))) (= (select (select |#memory_int_3| v_idxDim1_3) cse1) (select (select |#memory_int_2| v_idxDim1_3) cse1)))))) (< 7 v_z_79))))
(assert (forall ((v_z_76 Int) (v_y_75 Int)) (or (< (+ v_z_76 (mod |ULTIMATE.start_main_~#a~0#1.offset_1| 8)) 8) (forall ((v_y_76 Int) (v_idxDim1_3 Int)) (let ((cse1 (* v_y_76 8))) (or (< (+ |ULTIMATE.start_main_~i~0#1_2| (div |ULTIMATE.start_main_~#a~0#1.offset_1| 8)) (+ v_y_76 v_y_75)) (let ((cse0 (+ cse1 (* (- 1) v_z_76) (* v_y_75 8)))) (= (select (select |#memory_int_3| v_idxDim1_3) cse0) (select (select |#memory_int_2| v_idxDim1_3) cse0))) (< cse1 v_z_76) (< (+ 7 v_z_76) (+ cse1 (mod (+ 4 (* 7 |ULTIMATE.start_main_~#a~0#1.offset_1|)) 8)))))) (< 7 v_z_76))))
(assert (forall ((v_z_84 Int)) (or (< v_z_84 0) (< 7 (+ v_z_84 (mod |ULTIMATE.start_main_~#a~0#1.offset_1| 8))) (forall ((v_y_82 Int) (v_y_84 Int) (v_idxDim1_3 Int)) (let ((cse0 (* v_y_84 8))) (let ((cse1 (+ (mod (+ 4 (* 7 |ULTIMATE.start_main_~#a~0#1.offset_1|)) 8) cse0))) (or (< cse0 v_z_84) (< (+ 7 v_z_84) cse0) (= cse1 (+ v_z_84 8)) (< (+ v_y_84 v_y_82) (+ |ULTIMATE.start_main_~i~0#1_3| (div |ULTIMATE.start_main_~#a~0#1.offset_1| 8))) (= cse1 v_z_84) (let ((cse2 (+ (* v_y_82 8) cse0 (* (- 1) v_z_84)))) (= (select (select |#memory_int_2| v_idxDim1_3) cse2) (select (select |#memory_int_3| v_idxDim1_3) cse2))))))))))
(assert (forall ((v_y_82 Int) (v_z_85 Int) (v_y_85 Int) (v_idxDim1_3 Int)) (let ((cse4 (* 7 v_z_85)) (cse5 (* v_y_85 8))) (let ((cse2 (+ cse4 cse5)) (cse0 (+ (mod (+ 4 (* 7 |ULTIMATE.start_main_~#a~0#1.offset_1|)) 8) cse4 cse5)) (cse1 (+ v_z_85 (mod |ULTIMATE.start_main_~#a~0#1.offset_1| 8)))) (or (= cse0 0) (= cse1 8) (< 7 cse2) (let ((cse3 (+ (* v_y_82 8) cse4 cse5))) (= (select (select |#memory_int_2| v_idxDim1_3) cse3) (select (select |#memory_int_3| v_idxDim1_3) cse3))) (< cse2 0) (< v_z_85 0) (< 7 v_z_85) (= 8 cse0) (= cse1 0))))))
(assert (let ((cse0 (mod (+ 4 (* 7 |ULTIMATE.start_main_~#a~0#1.offset_1|)) 8))) (or (forall ((v_y_87 Int)) (let ((cse2 (div (+ (* (- 1) |ULTIMATE.start_main_~#a~0#1.offset_1|) (- 4)) 8)) (cse1 (* v_y_87 8)) (cse3 (* (- 1) cse0))) (or (< (+ (* |ULTIMATE.start_main_~i~0#1_3| 8) cse0) (+ cse1 (* 8 cse2) 9)) (< (+ v_y_87 (div cse3 8) cse2) |ULTIMATE.start_main_~i~0#1_2|) (= (select (select |#memory_int_3| |ULTIMATE.start_main_~#a~0#1.base_1|) (+ cse1 cse3)) 0)))) (< 0 cse0))))
(assert (forall ((v_z_77 Int)) (or (forall ((v_y_77 Int)) (let ((cse0 (* v_y_77 8))) (or (< (+ 7 v_z_77) (+ (mod (+ 4 (* 7 |ULTIMATE.start_main_~#a~0#1.offset_1|)) 8) cse0)) (forall ((v_y_75 Int) (v_idxDim1_3 Int)) (or (< |ULTIMATE.start_main_~i~0#1_2| (+ v_y_75 (div (+ (* (- 1) |ULTIMATE.start_main_~#a~0#1.offset_1|) (- 4)) 8) 1)) (let ((cse1 (+ (* (- 1) v_z_77) (* v_y_75 8) cse0))) (= (select (select |#memory_int_2| v_idxDim1_3) cse1) (select (select |#memory_int_3| v_idxDim1_3) cse1))) (< (+ v_y_77 v_y_75) (+ |ULTIMATE.start_main_~i~0#1_3| (div |ULTIMATE.start_main_~#a~0#1.offset_1| 8) 1))))))) (< 7 v_z_77))))
(assert (let ((cse1 (mod (+ 4 (* 7 |ULTIMATE.start_main_~#a~0#1.offset_1|)) 8))) (or (forall ((v_y_87 Int)) (let ((cse0 (* v_y_87 8)) (cse2 (div (+ (* (- 1) |ULTIMATE.start_main_~#a~0#1.offset_1|) (- 4)) 8))) (or (= (select (select |#memory_int_3| |ULTIMATE.start_main_~#a~0#1.base_1|) (+ cse0 (* (- 1) cse1))) 0) (< (+ cse0 (* 8 cse2)) (+ cse1 (* |ULTIMATE.start_main_~i~0#1_2| 8))) (< |ULTIMATE.start_main_~i~0#1_3| (+ v_y_87 cse2 1))))) (< 0 cse1))))
(assert (forall ((v_z_77 Int)) (or (forall ((v_y_75 Int) (v_idxDim1_3 Int) (v_y_77 Int)) (let ((cse0 (* v_y_77 8))) (or (< cse0 v_z_77) (< (+ v_y_77 v_y_75) (+ |ULTIMATE.start_main_~i~0#1_3| (div |ULTIMATE.start_main_~#a~0#1.offset_1| 8))) (< (+ 7 v_z_77) (+ (mod (+ 4 (* 7 |ULTIMATE.start_main_~#a~0#1.offset_1|)) 8) cse0)) (< |ULTIMATE.start_main_~i~0#1_2| (+ v_y_75 (div (+ (* (- 1) |ULTIMATE.start_main_~#a~0#1.offset_1|) (- 4)) 8) 1)) (let ((cse1 (+ (* (- 1) v_z_77) (* v_y_75 8) cse0))) (= (select (select |#memory_int_2| v_idxDim1_3) cse1) (select (select |#memory_int_3| v_idxDim1_3) cse1)))))) (< 7 (+ v_z_77 (mod |ULTIMATE.start_main_~#a~0#1.offset_1| 8))) (< v_z_77 0))))
(assert (forall ((v_z_70 Int)) (or (< v_z_70 0) (< 7 v_z_70) (forall ((v_y_70 Int)) (let ((cse1 (* v_y_70 8))) (or (forall ((v_y_68 Int) (v_idxDim1_3 Int)) (or (< (+ v_y_68 (div (+ (* (- 1) |ULTIMATE.start_main_~#a~0#1.offset_1|) (- 4)) 8) 1) |ULTIMATE.start_main_~i~0#1_3|) (let ((cse0 (+ (* (- 1) v_z_70) cse1 (* v_y_68 8)))) (= (select (select |#memory_int_2| v_idxDim1_3) cse0) (select (select |#memory_int_3| v_idxDim1_3) cse0))))) (< (+ (mod (+ 4 (* 7 |ULTIMATE.start_main_~#a~0#1.offset_1|)) 8) cse1) (+ v_z_70 8)) (< (+ 7 v_z_70) cse1)))))))
(assert (<= |ULTIMATE.start_main_~i~0#1_3| (+ |ULTIMATE.start_main_~N~0#1_1| 1)))
(assert (forall ((v_y_68 Int) (v_y_71 Int) (v_z_71 Int) (v_idxDim1_3 Int)) (let ((cse0 (* v_y_71 8)) (cse1 (* 7 v_z_71))) (or (< 7 v_z_71) (< 7 (+ cse0 cse1)) (< (+ v_y_68 (div (+ (* (- 1) |ULTIMATE.start_main_~#a~0#1.offset_1|) (- 4)) 8) 1) |ULTIMATE.start_main_~i~0#1_3|) (let ((cse2 (+ cse0 cse1 (* v_y_68 8)))) (= (select (select |#memory_int_3| v_idxDim1_3) cse2) (select (select |#memory_int_2| v_idxDim1_3) cse2))) (< (+ cse0 cse1 (mod (+ 4 (* 7 |ULTIMATE.start_main_~#a~0#1.offset_1|)) 8)) 8) (< v_z_71 0) (= 8 (+ v_z_71 (mod |ULTIMATE.start_main_~#a~0#1.offset_1| 8)))))))
(assert (forall ((v_z_83 Int)) (or (forall ((v_y_83 Int)) (let ((cse1 (* v_y_83 8))) (let ((cse0 (+ cse1 (mod (+ 4 (* 7 |ULTIMATE.start_main_~#a~0#1.offset_1|)) 8)))) (or (= v_z_83 cse0) (< cse1 v_z_83) (= (+ v_z_83 8) cse0) (< (+ 7 v_z_83) cse1) (forall ((v_y_82 Int) (v_idxDim1_3 Int)) (let ((cse3 (+ v_y_83 v_y_82)) (cse2 (+ |ULTIMATE.start_main_~i~0#1_2| (div |ULTIMATE.start_main_~#a~0#1.offset_1| 8)))) (or (< cse2 cse3) (let ((cse4 (+ cse1 (* v_y_82 8) (* (- 1) v_z_83)))) (= (select (select |#memory_int_3| v_idxDim1_3) cse4) (select (select |#memory_int_2| v_idxDim1_3) cse4))) (= cse3 cse2)))))))) (< v_z_83 0) (< 7 v_z_83))))
(assert (forall ((v_z_73 Int)) (or (< v_z_73 0) (forall ((v_y_73 Int)) (let ((cse0 (* v_y_73 8))) (or (< cse0 v_z_73) (< (+ 7 v_z_73) cse0) (forall ((v_y_68 Int) (v_idxDim1_3 Int)) (or (< (+ v_y_68 (div (+ (* (- 1) |ULTIMATE.start_main_~#a~0#1.offset_1|) (- 4)) 8)) |ULTIMATE.start_main_~i~0#1_3|) (let ((cse1 (+ cse0 (* (- 1) v_z_73) (* v_y_68 8)))) (= (select (select |#memory_int_2| v_idxDim1_3) cse1) (select (select |#memory_int_3| v_idxDim1_3) cse1)))))))) (< 7 v_z_73))))
(assert (forall ((v_y_75 Int)) (or (forall ((v_z_80 Int)) (or (< 7 (+ v_z_80 (mod |ULTIMATE.start_main_~#a~0#1.offset_1| 8))) (forall ((v_y_80 Int) (v_idxDim1_3 Int)) (let ((cse1 (* v_y_80 8))) (or (let ((cse0 (+ (* (- 1) v_z_80) cse1 (* v_y_75 8)))) (= (select (select |#memory_int_2| v_idxDim1_3) cse0) (select (select |#memory_int_3| v_idxDim1_3) cse0))) (< (+ 7 v_z_80) cse1) (< (+ v_y_75 v_y_80) (+ |ULTIMATE.start_main_~i~0#1_3| (div |ULTIMATE.start_main_~#a~0#1.offset_1| 8)))))))) (< |ULTIMATE.start_main_~i~0#1_2| (+ v_y_75 2 (div (+ (* (- 1) |ULTIMATE.start_main_~#a~0#1.offset_1|) (- 4)) 8))))))
(assert (forall ((v_y_68 Int) (v_z_74 Int) (v_y_74 Int) (v_idxDim1_3 Int)) (let ((cse3 (* v_y_74 8)) (cse4 (* 7 v_z_74))) (let ((cse0 (+ v_z_74 (mod |ULTIMATE.start_main_~#a~0#1.offset_1| 8))) (cse1 (+ cse3 cse4))) (or (< (+ v_y_68 (div (+ (* (- 1) |ULTIMATE.start_main_~#a~0#1.offset_1|) (- 4)) 8)) |ULTIMATE.start_main_~i~0#1_3|) (< v_z_74 0) (= cse0 0) (= cse0 8) (< 7 v_z_74) (< 7 cse1) (< cse1 0) (let ((cse2 (+ cse3 cse4 (* v_y_68 8)))) (= (select (select |#memory_int_3| v_idxDim1_3) cse2) (select (select |#memory_int_2| v_idxDim1_3) cse2))))))))
(assert (forall ((v_z_68 Int)) (or (< 7 v_z_68) (forall ((v_y_68 Int)) (or (< (+ v_y_68 (div (+ (* (- 1) |ULTIMATE.start_main_~#a~0#1.offset_1|) (- 4)) 8)) |ULTIMATE.start_main_~i~0#1_3|) (forall ((v_idxDim1_3 Int)) (or (= |ULTIMATE.start_main_~#a~0#1.base_1| v_idxDim1_3) (let ((cse0 (+ v_z_68 (* v_y_68 8)))) (= (select (select |#memory_int_3| v_idxDim1_3) cse0) (select (select |#memory_int_2| v_idxDim1_3) cse0))))))) (< v_z_68 0))))
(assert (forall ((v_z_84 Int)) (or (< 7 v_z_84) (< v_z_84 0) (forall ((v_y_84 Int)) (let ((cse1 (* v_y_84 8))) (let ((cse2 (+ (mod (+ 4 (* 7 |ULTIMATE.start_main_~#a~0#1.offset_1|)) 8) cse1))) (or (forall ((v_y_82 Int) (v_idxDim1_3 Int)) (or (< (+ v_y_84 v_y_82) (+ |ULTIMATE.start_main_~i~0#1_3| (div |ULTIMATE.start_main_~#a~0#1.offset_1| 8) 1)) (let ((cse0 (+ (* v_y_82 8) cse1 (* (- 1) v_z_84)))) (= (select (select |#memory_int_2| v_idxDim1_3) cse0) (select (select |#memory_int_3| v_idxDim1_3) cse0))))) (< cse1 v_z_84) (< (+ 7 v_z_84) cse1) (= cse2 (+ v_z_84 8)) (= cse2 v_z_84))))))))
(assert (let ((cse3 (mod (+ 4 (* 7 |ULTIMATE.start_main_~#a~0#1.offset_1|)) 8))) (or (forall ((v_y_87 Int)) (let ((cse1 (* (- 1) cse3)) (cse0 (* v_y_87 8)) (cse2 (div (+ (* (- 1) |ULTIMATE.start_main_~#a~0#1.offset_1|) (- 4)) 8))) (or (= (select (select |#memory_int_3| |ULTIMATE.start_main_~#a~0#1.base_1|) (+ cse0 8 cse1)) 0) (< (+ v_y_87 (div cse1 8) cse2 1) |ULTIMATE.start_main_~i~0#1_2|) (< (+ (* |ULTIMATE.start_main_~i~0#1_3| 8) cse3) (+ cse0 (* 8 cse2) 17))))) (< cse3 1))))
(assert (forall ((v_z_70 Int)) (or (< v_z_70 0) (< 7 (+ v_z_70 (mod |ULTIMATE.start_main_~#a~0#1.offset_1| 8))) (forall ((v_y_68 Int) (v_y_70 Int) (v_idxDim1_3 Int)) (let ((cse1 (* v_y_70 8))) (or (< (+ v_y_68 (div (+ (* (- 1) |ULTIMATE.start_main_~#a~0#1.offset_1|) (- 4)) 8) 1) |ULTIMATE.start_main_~i~0#1_3|) (let ((cse0 (+ (* (- 1) v_z_70) cse1 (* v_y_68 8)))) (= (select (select |#memory_int_2| v_idxDim1_3) cse0) (select (select |#memory_int_3| v_idxDim1_3) cse0))) (< (+ (mod (+ 4 (* 7 |ULTIMATE.start_main_~#a~0#1.offset_1|)) 8) cse1) (+ v_z_70 8)) (< (+ 7 v_z_70) cse1)))))))
(assert (forall ((v_z_68 Int)) (or (< 7 v_z_68) (< (+ v_z_68 (mod (+ 4 (* 7 |ULTIMATE.start_main_~#a~0#1.offset_1|)) 8)) 8) (forall ((v_y_68 Int)) (or (< (+ v_y_68 (div (+ (* (- 1) |ULTIMATE.start_main_~#a~0#1.offset_1|) (- 4)) 8) 1) |ULTIMATE.start_main_~i~0#1_3|) (forall ((v_idxDim1_3 Int)) (or (= |ULTIMATE.start_main_~#a~0#1.base_1| v_idxDim1_3) (let ((cse0 (+ v_z_68 (* v_y_68 8)))) (= (select (select |#memory_int_3| v_idxDim1_3) cse0) (select (select |#memory_int_2| v_idxDim1_3) cse0))))))))))
(assert (forall ((v_z_83 Int)) (or (forall ((v_y_82 Int) (v_y_83 Int) (v_idxDim1_3 Int)) (let ((cse0 (* v_y_83 8))) (or (< (+ |ULTIMATE.start_main_~i~0#1_2| (div |ULTIMATE.start_main_~#a~0#1.offset_1| 8)) (+ v_y_83 v_y_82)) (< cse0 v_z_83) (= (+ v_z_83 8) (+ cse0 (mod (+ 4 (* 7 |ULTIMATE.start_main_~#a~0#1.offset_1|)) 8))) (< (+ 7 v_z_83) cse0) (let ((cse1 (+ cse0 (* v_y_82 8) (* (- 1) v_z_83)))) (= (select (select |#memory_int_3| v_idxDim1_3) cse1) (select (select |#memory_int_2| v_idxDim1_3) cse1)))))) (< (+ v_z_83 (mod |ULTIMATE.start_main_~#a~0#1.offset_1| 8)) 8) (< 7 v_z_83))))
(assert (forall ((v_z_75 Int)) (or (< 7 (+ v_z_75 (mod (+ 4 (* 7 |ULTIMATE.start_main_~#a~0#1.offset_1|)) 8))) (< v_z_75 0) (forall ((v_y_75 Int)) (or (< |ULTIMATE.start_main_~i~0#1_2| (+ v_y_75 (div (+ (* (- 1) |ULTIMATE.start_main_~#a~0#1.offset_1|) (- 4)) 8) 1)) (forall ((v_idxDim1_3 Int)) (or (= |ULTIMATE.start_main_~#a~0#1.base_1| v_idxDim1_3) (let ((cse0 (+ v_z_75 (* v_y_75 8)))) (= (select (select |#memory_int_2| v_idxDim1_3) cse0) (select (select |#memory_int_3| v_idxDim1_3) cse0))))))))))
(assert (let ((cse3 (mod (+ 4 (* 7 |ULTIMATE.start_main_~#a~0#1.offset_1|)) 8))) (or (forall ((v_y_87 Int)) (let ((cse1 (* (- 1) cse3)) (cse0 (* v_y_87 8)) (cse2 (div (+ (* (- 1) |ULTIMATE.start_main_~#a~0#1.offset_1|) (- 4)) 8))) (or (= (select (select |#memory_int_3| |ULTIMATE.start_main_~#a~0#1.base_1|) (+ cse0 8 cse1)) 0) (< (+ v_y_87 2 (div cse1 8) cse2) |ULTIMATE.start_main_~i~0#1_2|) (< (+ (* |ULTIMATE.start_main_~i~0#1_3| 8) cse3) (+ cse0 (* 8 cse2) 17))))) (< cse3 1))))
(assert (forall ((v_z_79 Int) (v_y_75 Int)) (or (< 7 v_z_79) (forall ((v_y_79 Int) (v_idxDim1_3 Int)) (let ((cse0 (* v_y_79 8))) (or (< (+ |ULTIMATE.start_main_~i~0#1_2| (div |ULTIMATE.start_main_~#a~0#1.offset_1| 8)) (+ v_y_75 v_y_79)) (< cse0 v_z_79) (< (+ 7 v_z_79) cse0) (let ((cse1 (+ (* (- 1) v_z_79) cse0 (* v_y_75 8)))) (= (select (select |#memory_int_3| v_idxDim1_3) cse1) (select (select |#memory_int_2| v_idxDim1_3) cse1)))))) (< (+ v_z_79 (mod |ULTIMATE.start_main_~#a~0#1.offset_1| 8)) 8))))
(assert (forall ((v_idxDim2_3 Int) (v_idxDim1_3 Int)) (or (= |ULTIMATE.start_main_~#a~0#1.base_1| v_idxDim1_3) (= (select (select |#memory_int_2| v_idxDim1_3) v_idxDim2_3) (select (select |#memory_int_3| v_idxDim1_3) v_idxDim2_3)))))
(assert (< |ULTIMATE.start_main_~N~0#1_1| |ULTIMATE.start_main_~i~0#1_3|))
(assert (<= |ULTIMATE.start_main_~i~0#1_5| 0))
(assert (>= |ULTIMATE.start_main_~i~0#1_5| 0))
(assert (<= |v_ULTIMATE.start_main_#t~mem5#1_8_fresh_1| (select (select |#memory_int_3| |ULTIMATE.start_main_~#a~0#1.base_1|) (+ |ULTIMATE.start_main_~#a~0#1.offset_1| (* |ULTIMATE.start_main_~i~0#1_5| 4)))))
(assert (>= |v_ULTIMATE.start_main_#t~mem5#1_8_fresh_1| (select (select |#memory_int_3| |ULTIMATE.start_main_~#a~0#1.base_1|) (+ |ULTIMATE.start_main_~#a~0#1.offset_1| (* |ULTIMATE.start_main_~i~0#1_5| 4)))))
(assert (<= (ite (<= 0 |v_ULTIMATE.start_main_#t~mem5#1_8_fresh_1|) 1 0) |v_ULTIMATE.start___VERIFIER_assert_#in~cond#1_7_fresh_1|))
(assert (>= (ite (<= 0 |v_ULTIMATE.start_main_#t~mem5#1_8_fresh_1|) 1 0) |v_ULTIMATE.start___VERIFIER_assert_#in~cond#1_7_fresh_1|))
(assert (<= |ULTIMATE.start___VERIFIER_assert_~cond#1_6| |v_ULTIMATE.start___VERIFIER_assert_#in~cond#1_7_fresh_1|))
(assert (>= |ULTIMATE.start___VERIFIER_assert_~cond#1_6| |v_ULTIMATE.start___VERIFIER_assert_#in~cond#1_7_fresh_1|))
(assert (<= |ULTIMATE.start_main_~i~0#1_5| (* 2 |ULTIMATE.start_main_~N~0#1_1|)))
(assert (<= |ULTIMATE.start___VERIFIER_assert_~cond#1_6| 0))
(assert (>= |ULTIMATE.start___VERIFIER_assert_~cond#1_6| 0))
(check-sat)
(exit)
